Version identifier: 22.1.0.0 | 2022-03-09 | 1a383f8ce
CPXPARAM_Threads                                 1
CPXPARAM_MIP_Strategy_VariableSelect             3
CPXPARAM_TimeLimit                               599.98964405200002
Tried aggregator 1 time.
MIP Presolve eliminated 16 rows and 0 columns.
Reduced MIP has 4504 rows, 10000 columns, and 87724 nonzeros.
Reduced MIP has 10000 binaries, 0 generals, 0 SOSs, and 0 indicators.
Presolve time = 0.06 sec. (42.30 ticks)
Probing time = 0.01 sec. (4.41 ticks)
Tried aggregator 1 time.
Detecting symmetries...
Reduced MIP has 4504 rows, 10000 columns, and 87724 nonzeros.
Reduced MIP has 10000 binaries, 0 generals, 0 SOSs, and 0 indicators.
Presolve time = 0.06 sec. (53.35 ticks)
Probing time = 0.01 sec. (4.41 ticks)
Clique table members: 3489.
MIP emphasis: balance optimality and feasibility.
MIP search method: dynamic search.
Parallel mode: none, using 1 thread.
Root relaxation solution time = 3.59 sec. (3428.12 ticks)

        Nodes                                         Cuts/
   Node  Left     Objective  IInf  Best Integer    Best Bound    ItCnt     Gap

      0     0        0.0000  2237                      0.0000     9137         
*     0+    0                            0.0000        0.0000             0.00%
      0     0        cutoff              0.0000        0.0000     9137    0.00%
Elapsed time = 25.50 sec. (22928.93 ticks, tree = 0.01 MB, solutions = 1)

Root node processing (before b&c):
  Real time             =   25.50 sec. (22929.24 ticks)
Sequential b&c:
  Real time             =    0.00 sec. (0.00 ticks)
                          ------------
Total (root+branch&cut) =   25.50 sec. (22929.24 ticks)
Primal:	500
Dual:	500
Status:	Optimal
Time:	25.565
Sequence:
	18
	2
	4
	18
	2
	4
	18
	2
	3
	18
	2
	5
	1
	12
	7
	1
	15
	11
	1
	5
	12
	19
	7
	12
	1
	14
	12
	1
	14
	12
	19
	16
	12
	19
	16
	0
	19
	2
	11
	1
	15
	11
	1
	5
	12
	19
	5
	12
	1
	16
	12
	1
	14
	12
	19
	3
	11
	9
	5
	4
	18
	2
	4
	18
	2
	4
	10
	0
	15
	10
	0
	15
	10
	3
	2
	18
	3
	2
	18
	3
	2
	18
	3
	5
	12
	19
	16
	12
	1
	13
	11
	9
	4
	11
	9
	4
	11
	9
	5
	7
	8
	13
	16
	1
	12
	16
	1
	12
	7
	1
	12
	14
	19
	12
	14
	19
	12
	16
	19
	0
	2
	10
	0
	15
	1
	11
	15
	1
	11
	15
	1
	16
	12
	19
	7
	12
	19
	3
	11
	9
	13
	0
	10
	2
	3
	18
	2
	3
	18
	2
	4
	18
	3
	2
	18
	3
	2
	10
	0
	15
	10
	0
	2
	10
	0
	13
	9
	0
	16
	9
	6
	11
	9
	6
	4
	8
	16
	4
	17
	14
	13
	17
	7
	13
	17
	7
	5
	8
	16
	4
	17
	7
	13
	17
	14
	3
	17
	14
	4
	8
	14
	6
	17
	7
	5
	8
	7
	5
	8
	7
	6
	17
	7
	5
	8
	16
	13
	8
	16
	13
	17
	7
	4
	8
	14
	13
	8
	16
	6
	17
	14
	13
	17
	14
	3
	8
	7
	6
	17
	7
	4
	8
	16
	13
	8
	7
	4
	9
	11
	4
	9
	11
	6
	9
	11
	6
	9
	11
	4
	9
	11
	13
	9
	11
	3
	19
	16
	0
	9
	4
	11
	9
	13
	11
	9
	3
	11
	1
	2
	11
	19
	2
	11
	1
	15
	0
	10
	15
	0
	10
	15
	0
	10
	15
	0
	10
	15
	0
	10
	15
	0
	10
	15
	0
	10
	15
	4
	10
	12
	5
	6
	17
	7
	5
	8
	16
	6
	8
	16
	3
	17
	7
	13
	8
	5
	4
	18
	2
	3
	18
	2
	4
	18
	2
	4
	18
	2
	3
	18
	2
	3
	18
	4
	5
	8
	14
	13
	8
	16
	3
	17
	7
	6
	17
	7
	6
	17
	14
	13
	8
	5
	7
	17
	13
	16
	8
	13
	16
	8
	13
	14
	17
	13
	14
	8
	13
	14
	17
	3
	14
	8
	13
	16
	8
	5
	14
	17
	13
	16
	8
	13
	16
	8
	6
	7
	8
	4
	7
	12
	19
	4
	11
	9
	6
	11
	9
	6
	11
	9
	13
	11
	9
	13
	11
	9
	5
	7
	1
	12
	14
	19
	12
	16
	1
	12
	14
	19
	12
	7
	19
	12
	7
	1
	12
	7
	1
	12
	7
	1
	12
	16
	19
	12
	7
	4
	17
	7
	5
	8
	14
	5
	8
	14
	5
	1
	15
	0
	10
	15
	0
	10
	15
	0
	10
	15
	0
	10
	6
	0
	9
	14
	0
	9
	7
	6
	17
	7
	4
	8
	7
	4
	17
	6
	14
	8
	13
	16
	8
	4
	16
	8
	13
	7
	17
	13
	16
	8
	5
	14
	17
